c FILE /home/rafael/Documents/HappySet/MIHS/inputs/happygen/output/graph_d_regular_k4_p0.1_v50_20241127_082609.txt
c SOURCE This is a d-regular graph formed for the happy graph colouring problem.
c DESCRIPTION It was generated using the problem generator of Rhyd Lewis
c
c GRAPH STATS
c Seed                             = 1952449253
c Number of Nodes                  = 50
c Number of colours k              = 4
c Number of pre-assignments        = 5
c Degree of all vertices           = 6
c Density                          = 0.122449
c 
c The degrees of nodes 1 to 50, respectively, are as follows 
c [6, 6, 6, 6, 6, 6, 6, 6, 6, 6, 6, 6, 6, 6, 6, 6, 6, 6, 6, 6, 6, 6, 6, 6, 6, 6, 
c  6, 6, 6, 6, 6, 6, 6, 6, 6, 6, 6, 6, 6, 6, 6, 6, 6, 6, 6, 6, 6, 6, 6, 6] 
c  
p edge 50 150 4
e 1 14
e 1 24
e 1 26
e 1 28
e 1 40
e 1 50
e 2 3
e 2 10
e 2 24
e 2 29
e 2 30
e 2 41
e 3 9
e 3 32
e 3 33
e 3 36
e 3 42
e 4 27
e 4 28
e 4 35
e 4 37
e 4 43
e 4 44
e 5 15
e 5 32
e 5 40
e 5 43
e 5 44
e 5 49
e 6 17
e 6 19
e 6 25
e 6 42
e 6 49
e 6 50
e 7 12
e 7 13
e 7 16
e 7 21
e 7 23
e 7 28
e 8 10
e 8 12
e 8 13
e 8 24
e 8 36
e 8 46
e 9 16
e 9 26
e 9 37
e 9 38
e 9 48
e 10 14
e 10 19
e 10 26
e 10 44
e 11 14
e 11 20
e 11 22
e 11 30
e 11 39
e 11 45
e 12 17
e 12 33
e 12 39
e 12 40
e 13 15
e 13 44
e 13 46
e 13 47
e 14 19
e 14 40
e 14 42
e 15 23
e 15 31
e 15 38
e 15 41
e 16 19
e 16 20
e 16 22
e 16 33
e 17 26
e 17 30
e 17 34
e 17 47
e 18 20
e 18 22
e 18 35
e 18 43
e 18 45
e 18 47
e 19 44
e 19 49
e 20 37
e 20 38
e 20 39
e 21 24
e 21 25
e 21 43
e 21 45
e 21 48
e 22 23
e 22 31
e 22 40
e 23 29
e 23 35
e 23 37
e 24 26
e 24 31
e 25 36
e 25 38
e 25 39
e 25 50
e 26 48
e 27 32
e 27 39
e 27 41
e 27 46
e 27 50
e 28 32
e 28 35
e 28 49
e 29 30
e 29 31
e 29 41
e 29 42
e 30 36
e 30 49
e 31 42
e 31 47
e 32 35
e 32 40
e 33 37
e 33 43
e 33 46
e 34 36
e 34 38
e 34 42
e 34 44
e 34 48
e 35 46
e 36 49
e 37 47
e 38 50
e 39 45
e 41 45
e 41 48
e 43 45
e 46 50
e 47 48
n 3 1
n 28 3
n 29 2
n 30 2
n 38 4
